NAME /Users/henri/Research/solvers/instances/idol-instances/robust/collection/cbp_Subramanyam_et_al_2020/CapBud_N10_1/models/uncertain_technology_matrix/
ROWS
 N  OBJ
 L  capacity
 L  c_460
 L  c_461
 L  c_462
 L  c_463
 L  c_464
 L  c_465
 L  c_466
 L  c_467
 L  c_468
 L  c_469
COLUMNS
    MARKER    'MARKER'                 'INTORG'
    x_0        OBJ        -0.320556
    x_0        c_460      1
    x_0        capacity   0.0641112
    x_1        OBJ        -0.60995
    x_1        c_461      1
    x_1        capacity   0.12199
    x_2        OBJ        -8.49319
    x_2        c_462      1
    x_2        capacity   1.69864
    x_3        OBJ        -6.95526
    x_3        c_463      1
    x_3        capacity   1.39105
    x_4        OBJ        -2.30412
    x_4        c_464      1
    x_4        capacity   0.460823
    x_5        OBJ        -1.18127
    x_5        c_465      1
    x_5        capacity   0.236253
    x_6        OBJ        -0.407103
    x_6        c_466      1
    x_6        capacity   0.0814205
    x_7        OBJ        -4.79707
    x_7        c_467      1
    x_7        capacity   0.959414
    x_8        OBJ        -5.87967
    x_8        c_468      1
    x_8        capacity   1.17593
    x_9        OBJ        -8.97956
    x_9        c_469      1
    x_9        capacity   1.79591
    y_0        OBJ        -0.256445
    y_0        c_460      1
    y_0        capacity   0.0641112
    y_1        OBJ        -0.48796
    y_1        c_461      1
    y_1        capacity   0.12199
    y_2        OBJ        -6.79455
    y_2        c_462      1
    y_2        capacity   1.69864
    y_3        OBJ        -5.5642
    y_3        c_463      1
    y_3        capacity   1.39105
    y_4        OBJ        -1.84329
    y_4        c_464      1
    y_4        capacity   0.460823
    y_5        OBJ        -0.945014
    y_5        c_465      1
    y_5        capacity   0.236253
    y_6        OBJ        -0.325682
    y_6        c_466      1
    y_6        capacity   0.0814205
    y_7        OBJ        -3.83766
    y_7        c_467      1
    y_7        capacity   0.959414
    y_8        OBJ        -4.70374
    y_8        c_468      1
    y_8        capacity   1.17593
    y_9        OBJ        -7.18365
    y_9        c_469      1
    y_9        capacity   1.79591
    MARKER    'MARKER'                 'INTEND'
RHS
    RHS       capacity   19.9639
    RHS       c_460      1
    RHS       c_461      1
    RHS       c_462      1
    RHS       c_463      1
    RHS       c_464      1
    RHS       c_465      1
    RHS       c_466      1
    RHS       c_467      1
    RHS       c_468      1
    RHS       c_469      1
BOUNDS
 LI BND       x_0        0
 UI BND       x_0        1
 LI BND       x_1        0
 UI BND       x_1        1
 LI BND       x_2        0
 UI BND       x_2        1
 LI BND       x_3        0
 UI BND       x_3        1
 LI BND       x_4        0
 UI BND       x_4        1
 LI BND       x_5        0
 UI BND       x_5        1
 LI BND       x_6        0
 UI BND       x_6        1
 LI BND       x_7        0
 UI BND       x_7        1
 LI BND       x_8        0
 UI BND       x_8        1
 LI BND       x_9        0
 UI BND       x_9        1
 LI BND       y_0        0
 UI BND       y_0        1
 LI BND       y_1        0
 UI BND       y_1        1
 LI BND       y_2        0
 UI BND       y_2        1
 LI BND       y_3        0
 UI BND       y_3        1
 LI BND       y_4        0
 UI BND       y_4        1
 LI BND       y_5        0
 UI BND       y_5        1
 LI BND       y_6        0
 UI BND       y_6        1
 LI BND       y_7        0
 UI BND       y_7        1
 LI BND       y_8        0
 UI BND       y_8        1
 LI BND       y_9        0
 UI BND       y_9        1
ENDATA
